
Gurobi 9.1.1 (mac64, gurobi_cl) logging started Tue Mar  9 15:52:21 2021

Academic license - for non-commercial use only - expires 2021-04-06
Using license file /Users/agnese/gurobi.lic
Set parameter LogFile to value gurobi.log

Gurobi Optimizer version 9.1.1 build v9.1.1rc0 (mac64)
Copyright (c) 2020, Gurobi Optimization, LLC

Read LP format model from file /Users/agnese/Documents/KTH-Work/GitHub_repositories/KTH-dESA/GLUCOSE/results/FINAL_2060/4.5_Total/TOTAL_new4/new4_gurobi/Total_new4.lp
Reading time = 0.62 seconds
cost: 55902 rows, 46410 columns, 511416 nonzeros
Thread count: 2 physical cores, 4 logical processors, using up to 4 threads
Optimize a model with 55902 rows, 46410 columns and 511416 nonzeros
Model fingerprint: 0x1dacfefe
Coefficient statistics:
  Matrix range     [2e-08, 6e+03]
  Objective range  [7e-08, 4e+11]
  Bounds range     [0e+00, 0e+00]
  RHS range        [1e-04, 1e+06]
Warning: Model contains large objective coefficients
         Consider reformulating model or setting NumericFocus parameter
         to avoid numerical issues.

Concurrent LP optimizer: dual simplex and barrier
Showing barrier log only...

Presolve removed 30154 rows and 28266 columns
Presolve time: 0.37s
Presolved: 25748 rows, 18294 columns, 351977 nonzeros

Ordering time: 0.76s

Barrier statistics:
 AA' NZ     : 1.301e+06
 Factor NZ  : 7.088e+06 (roughly 70 MBytes of memory)
 Factor Ops : 5.618e+09 (less than 1 second per iteration)
 Threads    : 1

                  Objective                Residual
Iter       Primal          Dual         Primal    Dual     Compl     Time
   0   5.03788572e+20 -3.79582326e+17  9.31e+08 2.08e+12  3.51e+16     2s
   1   2.71147571e+20 -5.08779986e+17  9.15e+08 1.98e+12  3.42e+16     3s
   2   2.65511333e+20 -8.74943775e+17  6.85e+08 1.77e+12  2.80e+16     3s
   3   1.45634318e+20 -3.29238353e+18  3.25e+08 4.67e+11  1.55e+16     4s
   4   3.43022959e+19 -3.59608777e+18  7.06e+07 3.87e+10  3.75e+15     4s
   5   3.05895255e+18 -2.78648903e+18  6.26e+06 2.56e+09  3.79e+14     5s
   6   9.24058820e+17 -1.62356738e+18  1.91e+06 6.12e+08  1.27e+14     6s
   7   3.18059796e+17 -1.27288365e+18  7.37e+05 4.25e+08  6.05e+13     6s
   8   6.81226577e+16 -3.71525587e+17  1.57e+05 5.48e+07  1.44e+13     7s
   9   1.75046180e+16 -1.34451256e+17  3.96e+04 1.60e+07  4.44e+12     7s
  10   9.94100885e+15 -4.42911243e+16  2.24e+04 4.60e+06  1.83e+12     8s
  11   3.94232689e+15 -8.76860585e+15  8.76e+03 4.48e+05  5.46e+11     9s
  12   5.71242309e+14 -1.67214282e+15  1.19e+03 1.08e+04  8.30e+10    10s
  13   6.18159649e+13 -5.01237773e+14  9.19e+01 5.43e+02  1.42e+10    10s
  14   1.95621901e+13 -1.45244106e+14  8.54e+00 1.03e+02  3.85e+09    11s
  15   2.12514889e+12 -1.84262773e+13  6.93e-01 2.25e+00  4.44e+08    12s
  16   2.38162911e+11 -2.00803530e+12  5.27e-02 2.07e-01  4.65e+07    12s
  17   3.57298667e+10 -3.98134538e+11  6.35e-03 3.74e-02  8.91e+06    13s
  18   8.73158253e+09 -2.19007189e+11  1.17e-03 2.05e-02  4.67e+06    13s
  19   1.40365478e+09 -9.17758676e+09  1.23e-05 7.32e-04  2.17e+05    14s
  20   2.45020896e+08 -1.00135700e+09  9.62e-07 2.44e-04  2.56e+04    15s
  21   1.84424962e+07 -1.22053364e+08  7.80e-09 2.44e-04  2.88e+03    15s
  22   2.32816495e+06 -3.19992218e+06  7.26e-09 4.88e-04  1.13e+02    16s
  23   4.69220932e+05 -1.72172698e+06  1.64e-09 2.44e-04  4.49e+01    17s
  24   3.27315963e+05 -5.74829229e+04  2.09e-09 4.88e-04  7.89e+00    17s
  25   2.91130168e+05  7.51517246e+04  1.24e-09 2.44e-04  4.43e+00    18s
  26   2.63788235e+05  1.67793550e+05  1.64e-09 4.88e-04  1.97e+00    18s
  27   2.53524537e+05  1.95203395e+05  1.26e-09 2.44e-04  1.20e+00    19s
  28   2.43029720e+05  2.16180105e+05  1.77e-09 2.44e-04  5.51e-01    20s
  29   2.38629548e+05  2.28654944e+05  1.06e-09 2.44e-04  2.05e-01    20s
  30   2.34998472e+05  2.33987119e+05  1.62e-09 2.44e-04  2.08e-02    21s
  31   2.34724542e+05  2.34562812e+05  4.67e-09 2.44e-04  3.41e-03    22s
  32   2.34664705e+05  2.34639981e+05  1.39e-08 2.44e-04  6.67e-04    22s
  33   2.34652328e+05  2.34654088e+05  3.07e-09 4.88e-04  5.35e-05    23s
  34   2.34650571e+05  2.34650050e+05  1.47e-08 4.88e-04  2.78e-05    24s
  35   2.34650173e+05  2.34650386e+05  9.93e-09 2.44e-04  1.32e-05    25s

Barrier performed 35 iterations in 25.03 seconds
Barrier solve interrupted - model solved by another algorithm


Solved with dual simplex
Solved in 55296 iterations and 25.04 seconds
Optimal objective  2.346496148e+05

Wrote result file 'TOTALnew4_resultsGUROBI.sol'

